100 500 10 200 10 100
29 121
84 167
34 45
33 115
51 184
82 144
83 43
15 15
16 31
36 200
90 144
92 127
65 123
11 70
35 183
70 103
72 62
77 188
23 101
29 19
45 36
62 42
17 71
20 190
30 140
52 124
38 192
66 46
93 46
65 73
54 86
88 144
94 58
74 57
82 99
89 76
74 18
97 15
34 190
58 184
16 15
81 55
22 192
16 134
29 41
49 100
22 163
51 77
55 18
40 181
88 11
15 53
85 200
95 110
35 75
43 184
69 44
93 100
76 164
13 107
34 51
68 155
42 61
69 46
50 167
39 188
43 96
51 199
63 111
53 127
51 45
83 78
62 161
18 171
38 44
86 140
26 95
78 134
78 160
99 59
62 187
17 138
35 99
40 20
94 88
39 197
86 69
71 68
13 86
38 143
53 127
19 50
29 20
82 11
51 143
78 139
17 118
24 55
97 34
84 37
